Route #1: 40 88 67 44
Route #2: 25 65 78 42 28
Route #3: 71 62 99 98 89
Route #4: 93 75
Route #5: 87 37 6 49 14
Route #6: 1 70 54
Route #7: 32 33 53 73 95 24
Route #8: 69 16 55 76
Route #9: 38 47 26 48 96 64 34
Route #10: 82 60 59
Route #11: 83 51 81
Route #12: 52 91 50
Route #13: 19 97 27
Route #14: 30 85 11 79
Route #15: 92 9 86
Route #16: 17 8
Route #17: 18 10 39
Route #18: 20 41 22 15
Route #19: 3 77 63
Route #20: 66 84 90 68
Route #21: 5 12 58
Route #22: 4 13 74
Route #23: 80 94 56 21
Route #24: 100 61 23
Route #25: 35 46 31
Route #26: 57 72 36 29 43 45 2 7
Cost 27591.0000
Time 16.0005